HUN,8,6,250
1,98,0,22,4,42,2,59,5,4,3,96
5,64,4,79,2,58,3,66,1,19,0,20
2,83,0,4,5,53,1,23,3,31,4,8
4,59,0,90,5,21,1,40,3,58,2,43
0,82,3,5,5,25,2,83,1,12,4,26
4,90,0,10,1,2,5,44,2,82,3,62
2,88,4,16,5,16,3,58,1,21,0,72
0,85,4,21,2,59,5,41,3,59,1,49
